80 94 134 154 162 198 208 222 284 324 404 412 448 480 480 506 546 546 582 612 632 650 702 710 742 802 814 816 826 828 834 840 858 868 876 880 908 912 942 958
460 486 498 282 266 490 260 460 672 66 88 456 640 484 252 692 896 152 234 474 522 176 746 682 264 254 582 516 864 264 652 514 688 882 942 962 950 356 346 516
